(set-option :produce-models true)
(set-logic QF_LRA)
(set-info :notes | Strip-packing problem.|)
(declare-fun x0 () Real)
(declare-fun y0 () Real)
(declare-fun x1 () Real)
(declare-fun y1 () Real)
(declare-fun x2 () Real)
(declare-fun y2 () Real)
(declare-fun x3 () Real)
(declare-fun y3 () Real)
(declare-fun x4 () Real)
(declare-fun y4 () Real)
(declare-fun x5 () Real)
(declare-fun y5 () Real)
(declare-fun x6 () Real)
(declare-fun y6 () Real)
(declare-fun x7 () Real)
(declare-fun y7 () Real)
(declare-fun x8 () Real)
(declare-fun y8 () Real)
(declare-fun z () Real)
(declare-fun c () Real)
(assert (and (= c z) (and (>= x0 0) 
(and (>= y0 0) 
(and (>= x1 0) 
(and (>= y1 0) 
(and (>= x2 0) 
(and (>= y2 0) 
(and (>= x3 0) 
(and (>= y3 0) 
(and (>= x4 0) 
(and (>= y4 0) 
(and (>= x5 0) 
(and (>= y5 0) 
(and (>= x6 0) 
(and (>= y6 0) 
(and (>= x7 0) 
(and (>= y7 0) 
(and (>= x8 0) 
(and (>= y8 0) 
(and (>= z 0) 
(and (>= c 0) 
(and (<= (+ x0 0.2684518014) z) 
(and (<= 0.9589564131 y0) 
(and (<= y0 1.0) 
(and (<= x0 (- 3.3821010967 0.2684518014)) 
(and (>= x0 0) 
(and (<= (+ x1 0.7271698835) z) 
(and (<= 0.9257201363 y1) 
(and (<= y1 1.0) 
(and (<= x1 (- 3.3821010967 0.7271698835)) 
(and (>= x1 0) 
(and (<= (+ x2 0.7963295526) z) 
(and (<= 0.9073065782 y2) 
(and (<= y2 1.0) 
(and (<= x2 (- 3.3821010967 0.7963295526)) 
(and (>= x2 0) 
(and (<= (+ x3 0.1820809297) z) 
(and (<= 0.7352727466 y3) 
(and (<= y3 1.0) 
(and (<= x3 (- 3.3821010967 0.1820809297)) 
(and (>= x3 0) 
(and (<= (+ x4 0.3655907893) z) 
(and (<= 0.6451530546 y4) 
(and (<= y4 1.0) 
(and (<= x4 (- 3.3821010967 0.3655907893)) 
(and (>= x4 0) 
(and (<= (+ x5 0.1532229827) z) 
(and (<= 0.6273435618 y5) 
(and (<= y5 1.0) 
(and (<= x5 (- 3.3821010967 0.1532229827)) 
(and (>= x5 0) 
(and (<= (+ x6 0.3405199977) z) 
(and (<= 0.4138705782 y6) 
(and (<= y6 1.0) 
(and (<= x6 (- 3.3821010967 0.3405199977)) 
(and (>= x6 0) 
(and (<= (+ x7 0.5487351598) z) 
(and (<= 0.111630671 y7) 
(and (<= y7 1.0) 
(and (<= x7 (- 3.3821010967 0.5487351598)) 
(and (>= x7 0) 
(and (<= (+ x8 0.3209420023) z) 
(and (<= 0.0480608717 y8) 
(and (<= y8 1.0) 
(and (<= x8 (- 3.3821010967 0.3209420023)) 
(and (>= x8 0) 
(and (<= c 3.3821010967) 
(and (or (<= (+ x0 0.2684518014) x1) (or (<= (+ x1 0.7271698835) x0) (or (>= (- y0 0.9589564131) y1) (or (>= (- y1 0.9257201363) y0))))) 
(and (or (<= (+ x0 0.2684518014) x2) (or (<= (+ x2 0.7963295526) x0) (or (>= (- y0 0.9589564131) y2) (or (>= (- y2 0.9073065782) y0))))) 
(and (or (<= (+ x0 0.2684518014) x3) (or (<= (+ x3 0.1820809297) x0) (or (>= (- y0 0.9589564131) y3) (or (>= (- y3 0.7352727466) y0))))) 
(and (or (<= (+ x0 0.2684518014) x4) (or (<= (+ x4 0.3655907893) x0) (or (>= (- y0 0.9589564131) y4) (or (>= (- y4 0.6451530546) y0))))) 
(and (or (<= (+ x0 0.2684518014) x5) (or (<= (+ x5 0.1532229827) x0) (or (>= (- y0 0.9589564131) y5) (or (>= (- y5 0.6273435618) y0))))) 
(and (or (<= (+ x0 0.2684518014) x6) (or (<= (+ x6 0.3405199977) x0) (or (>= (- y0 0.9589564131) y6) (or (>= (- y6 0.4138705782) y0))))) 
(and (or (<= (+ x0 0.2684518014) x7) (or (<= (+ x7 0.5487351598) x0) (or (>= (- y0 0.9589564131) y7) (or (>= (- y7 0.111630671) y0))))) 
(and (or (<= (+ x0 0.2684518014) x8) (or (<= (+ x8 0.3209420023) x0) (or (>= (- y0 0.9589564131) y8) (or (>= (- y8 0.0480608717) y0))))) 
(and (or (<= (+ x1 0.7271698835) x2) (or (<= (+ x2 0.7963295526) x1) (or (>= (- y1 0.9257201363) y2) (or (>= (- y2 0.9073065782) y1))))) 
(and (or (<= (+ x1 0.7271698835) x3) (or (<= (+ x3 0.1820809297) x1) (or (>= (- y1 0.9257201363) y3) (or (>= (- y3 0.7352727466) y1))))) 
(and (or (<= (+ x1 0.7271698835) x4) (or (<= (+ x4 0.3655907893) x1) (or (>= (- y1 0.9257201363) y4) (or (>= (- y4 0.6451530546) y1))))) 
(and (or (<= (+ x1 0.7271698835) x5) (or (<= (+ x5 0.1532229827) x1) (or (>= (- y1 0.9257201363) y5) (or (>= (- y5 0.6273435618) y1))))) 
(and (or (<= (+ x1 0.7271698835) x6) (or (<= (+ x6 0.3405199977) x1) (or (>= (- y1 0.9257201363) y6) (or (>= (- y6 0.4138705782) y1))))) 
(and (or (<= (+ x1 0.7271698835) x7) (or (<= (+ x7 0.5487351598) x1) (or (>= (- y1 0.9257201363) y7) (or (>= (- y7 0.111630671) y1))))) 
(and (or (<= (+ x1 0.7271698835) x8) (or (<= (+ x8 0.3209420023) x1) (or (>= (- y1 0.9257201363) y8) (or (>= (- y8 0.0480608717) y1))))) 
(and (or (<= (+ x2 0.7963295526) x3) (or (<= (+ x3 0.1820809297) x2) (or (>= (- y2 0.9073065782) y3) (or (>= (- y3 0.7352727466) y2))))) 
(and (or (<= (+ x2 0.7963295526) x4) (or (<= (+ x4 0.3655907893) x2) (or (>= (- y2 0.9073065782) y4) (or (>= (- y4 0.6451530546) y2))))) 
(and (or (<= (+ x2 0.7963295526) x5) (or (<= (+ x5 0.1532229827) x2) (or (>= (- y2 0.9073065782) y5) (or (>= (- y5 0.6273435618) y2))))) 
(and (or (<= (+ x2 0.7963295526) x6) (or (<= (+ x6 0.3405199977) x2) (or (>= (- y2 0.9073065782) y6) (or (>= (- y6 0.4138705782) y2))))) 
(and (or (<= (+ x2 0.7963295526) x7) (or (<= (+ x7 0.5487351598) x2) (or (>= (- y2 0.9073065782) y7) (or (>= (- y7 0.111630671) y2))))) 
(and (or (<= (+ x2 0.7963295526) x8) (or (<= (+ x8 0.3209420023) x2) (or (>= (- y2 0.9073065782) y8) (or (>= (- y8 0.0480608717) y2))))) 
(and (or (<= (+ x3 0.1820809297) x4) (or (<= (+ x4 0.3655907893) x3) (or (>= (- y3 0.7352727466) y4) (or (>= (- y4 0.6451530546) y3))))) 
(and (or (<= (+ x3 0.1820809297) x5) (or (<= (+ x5 0.1532229827) x3) (or (>= (- y3 0.7352727466) y5) (or (>= (- y5 0.6273435618) y3))))) 
(and (or (<= (+ x3 0.1820809297) x6) (or (<= (+ x6 0.3405199977) x3) (or (>= (- y3 0.7352727466) y6) (or (>= (- y6 0.4138705782) y3))))) 
(and (or (<= (+ x3 0.1820809297) x7) (or (<= (+ x7 0.5487351598) x3) (or (>= (- y3 0.7352727466) y7) (or (>= (- y7 0.111630671) y3))))) 
(and (or (<= (+ x3 0.1820809297) x8) (or (<= (+ x8 0.3209420023) x3) (or (>= (- y3 0.7352727466) y8) (or (>= (- y8 0.0480608717) y3))))) 
(and (or (<= (+ x4 0.3655907893) x5) (or (<= (+ x5 0.1532229827) x4) (or (>= (- y4 0.6451530546) y5) (or (>= (- y5 0.6273435618) y4))))) 
(and (or (<= (+ x4 0.3655907893) x6) (or (<= (+ x6 0.3405199977) x4) (or (>= (- y4 0.6451530546) y6) (or (>= (- y6 0.4138705782) y4))))) 
(and (or (<= (+ x4 0.3655907893) x7) (or (<= (+ x7 0.5487351598) x4) (or (>= (- y4 0.6451530546) y7) (or (>= (- y7 0.111630671) y4))))) 
(and (or (<= (+ x4 0.3655907893) x8) (or (<= (+ x8 0.3209420023) x4) (or (>= (- y4 0.6451530546) y8) (or (>= (- y8 0.0480608717) y4))))) 
(and (or (<= (+ x5 0.1532229827) x6) (or (<= (+ x6 0.3405199977) x5) (or (>= (- y5 0.6273435618) y6) (or (>= (- y6 0.4138705782) y5))))) 
(and (or (<= (+ x5 0.1532229827) x7) (or (<= (+ x7 0.5487351598) x5) (or (>= (- y5 0.6273435618) y7) (or (>= (- y7 0.111630671) y5))))) 
(and (or (<= (+ x5 0.1532229827) x8) (or (<= (+ x8 0.3209420023) x5) (or (>= (- y5 0.6273435618) y8) (or (>= (- y8 0.0480608717) y5))))) 
(and (or (<= (+ x6 0.3405199977) x7) (or (<= (+ x7 0.5487351598) x6) (or (>= (- y6 0.4138705782) y7) (or (>= (- y7 0.111630671) y6))))) 
(and (or (<= (+ x6 0.3405199977) x8) (or (<= (+ x8 0.3209420023) x6) (or (>= (- y6 0.4138705782) y8) (or (>= (- y8 0.0480608717) y6))))) 
(and (or (<= (+ x7 0.5487351598) x8) (or (<= (+ x8 0.3209420023) x7) (or (>= (- y7 0.111630671) y8) (or (>= (- y8 0.0480608717) y7))))) ))))))))))))))))))))))))))))))))))))))))))))))))))))))))))))))))))))))))))))))))))))))))))))))))))))))))
(minimize c)
(check-sat)
(get-objectives)
(exit)
